
m = 12;

n = 12;

Amin = 57;

Amax = 72;

B = 2736;

lambda = 20.00;

c = 
[[5,7,7,10,3,3,7,3,2,9,4,10],
[10,7,9,10,9,9,10,2,8,5,6,5],
[3,9,9,10,4,4,3,8,8,6,5,7],
[5,2,8,5,9,10,4,6,4,9,5,9],
[8,5,9,3,8,4,4,9,9,2,8,10],
[3,7,5,7,9,8,3,3,6,9,6,2],
[6,8,7,6,7,10,5,2,4,3,10,8],
[4,3,4,9,10,9,6,2,5,9,7,2],
[5,6,3,9,2,6,8,6,10,4,2,4],
[10,3,4,2,2,10,8,4,9,2,10,9],
[9,5,7,10,2,2,8,5,6,10,10,7],
[3,7,9,2,7,7,5,7,8,5,5,9]];
